40
1 0 35
2 0 5
2 1 62
3 0 37
3 1 74
3 2 8
4 0 21
4 1 80
4 2 60
4 3 44
5 0 11
5 1 22
5 2 38
5 3 10
5 4 31
6 0 67
6 1 57
6 2 71
6 3 60
6 4 16
6 5 46
7 0 49
7 1 24
7 2 38
7 3 75
7 4 30
7 5 17
7 6 18
8 0 58
8 1 39
8 2 61
8 3 1
8 4 64
8 5 72
8 6 31
8 7 47
9 0 67
9 1 58
9 2 20
9 3 65
9 4 34
9 5 33
9 6 63
9 7 53
9 8 26
10 0 56
10 1 8
10 2 76
10 3 34
10 4 46
10 5 15
10 6 49
10 7 10
10 8 53
10 9 25
11 0 53
11 1 68
11 2 69
11 3 15
11 4 17
11 5 19
11 6 12
11 7 41
11 8 15
11 9 78
11 10 68
12 0 20
12 1 34
12 2 30
12 3 62
12 4 48
12 5 49
12 6 26
12 7 6
12 8 42
12 9 6
12 10 79
12 11 58
13 0 33
13 1 15
13 2 40
13 3 72
13 4 7
13 5 30
13 6 38
13 7 57
13 8 20
13 9 42
13 10 18
13 11 7
13 12 13
14 0 43
14 1 61
14 2 54
14 3 21
14 4 25
14 5 15
14 6 22
14 7 49
14 8 15
14 9 77
14 10 67
14 11 62
14 12 80
14 13 13
15 0 21
15 1 32
15 2 73
15 3 52
15 4 48
15 5 42
15 6 71
15 7 72
15 8 12
15 9 35
15 10 41
15 11 74
15 12 62
15 13 53
15 14 19
16 0 21
16 1 21
16 2 25
16 3 46
16 4 22
16 5 53
16 6 71
16 7 59
16 8 11
16 9 78
16 10 32
16 11 47
16 12 16
16 13 32
16 14 15
16 15 4
17 0 51
17 1 20
17 2 74
17 3 31
17 4 45
17 5 15
17 6 60
17 7 60
17 8 6
17 9 18
17 10 27
17 11 20
17 12 65
17 13 71
17 14 41
17 15 15
17 16 11
18 0 26
18 1 51
18 2 19
18 3 66
18 4 28
18 5 70
18 6 71
18 7 78
18 8 44
18 9 8
18 10 15
18 11 54
18 12 14
18 13 2
18 14 67
18 15 29
18 16 20
18 17 69
19 0 77
19 1 3
19 2 18
19 3 35
19 4 23
19 5 66
19 6 5
19 7 71
19 8 32
19 9 39
19 10 44
19 11 78
19 12 35
19 13 71
19 14 29
19 15 73
19 16 33
19 17 34
19 18 3
20 0 15
20 1 56
20 2 13
20 3 71
20 4 55
20 5 72
20 6 76
20 7 44
20 8 18
20 9 60
20 10 60
20 11 65
20 12 14
20 13 62
20 14 22
20 15 56
20 16 73
20 17 14
20 18 21
20 19 3
21 0 11
21 1 60
21 2 14
21 3 10
21 4 34
21 5 6
21 6 21
21 7 79
21 8 43
21 9 23
21 10 77
21 11 41
21 12 15
21 13 79
21 14 33
21 15 38
21 16 40
21 17 22
21 18 33
21 19 79
21 20 25
22 0 73
22 1 73
22 2 18
22 3 78
22 4 78
22 5 24
22 6 21
22 7 25
22 8 60
22 9 53
22 10 32
22 11 77
22 12 43
22 13 73
22 14 21
22 15 25
22 16 52
22 17 57
22 18 60
22 19 41
22 20 68
22 21 7
23 0 34
23 1 43
23 2 71
23 3 45
23 4 69
23 5 14
23 6 3
23 7 17
23 8 33
23 9 30
23 10 52
23 11 48
23 12 74
23 13 29
23 14 15
23 15 71
23 16 54
23 17 44
23 18 24
23 19 32
23 20 49
23 21 1
23 22 61
24 0 36
24 1 24
24 2 4
24 3 45
24 4 20
24 5 48
24 6 23
24 7 18
24 8 10
24 9 56
24 10 10
24 11 19
24 12 39
24 13 7
24 14 46
24 15 30
24 16 12
24 17 52
24 18 71
24 19 66
24 20 4
24 21 73
24 22 28
24 23 73
25 0 33
25 1 13
25 2 14
25 3 44
25 4 68
25 5 66
25 6 43
25 7 54
25 8 10
25 9 51
25 10 77
25 11 40
25 12 29
25 13 16
25 14 56
25 15 9
25 16 2
25 17 78
25 18 74
25 19 2
25 20 3
25 21 80
25 22 50
25 23 32
25 24 49
26 0 65
26 1 58
26 2 22
26 3 78
26 4 14
26 5 65
26 6 72
26 7 66
26 8 66
26 9 28
26 10 6
26 11 24
26 12 20
26 13 31
26 14 11
26 15 65
26 16 15
26 17 11
26 18 64
26 19 73
26 20 33
26 21 68
26 22 15
26 23 17
26 24 75
26 25 76
27 0 57
27 1 73
27 2 61
27 3 22
27 4 48
27 5 36
27 6 55
27 7 77
27 8 18
27 9 30
27 10 3
27 11 27
27 12 48
27 13 41
27 14 7
27 15 53
27 16 52
27 17 67
27 18 46
27 19 68
27 20 4
27 21 65
27 22 59
27 23 32
27 24 74
27 25 4
27 26 54
28 0 4
28 1 42
28 2 40
28 3 67
28 4 11
28 5 59
28 6 46
28 7 15
28 8 31
28 9 10
28 10 70
28 11 15
28 12 69
28 13 53
28 14 43
28 15 50
28 16 14
28 17 43
28 18 17
28 19 6
28 20 9
28 21 54
28 22 22
28 23 29
28 24 48
28 25 59
28 26 60
28 27 33
29 0 12
29 1 62
29 2 11
29 3 30
29 4 56
29 5 76
29 6 2
29 7 62
29 8 20
29 9 69
29 10 12
29 11 15
29 12 53
29 13 26
29 14 32
29 15 59
29 16 58
29 17 62
29 18 69
29 19 19
29 20 7
29 21 58
29 22 75
29 23 1
29 24 78
29 25 50
29 26 4
29 27 36
29 28 44
30 0 29
30 1 40
30 2 2
30 3 26
30 4 13
30 5 50
30 6 26
30 7 14
30 8 41
30 9 12
30 10 16
30 11 64
30 12 47
30 13 29
30 14 12
30 15 41
30 16 4
30 17 57
30 18 51
30 19 65
30 20 30
30 21 65
30 22 61
30 23 26
30 24 6
30 25 68
30 26 51
30 27 58
30 28 32
30 29 10
31 0 31
31 1 68
31 2 27
31 3 5
31 4 41
31 5 21
31 6 16
31 7 78
31 8 9
31 9 65
31 10 68
31 11 26
31 12 20
31 13 76
31 14 46
31 15 32
31 16 30
31 17 78
31 18 11
31 19 51
31 20 44
31 21 23
31 22 18
31 23 66
31 24 7
31 25 39
31 26 65
31 27 16
31 28 49
31 29 73
31 30 60
32 0 72
32 1 65
32 2 54
32 3 61
32 4 41
32 5 26
32 6 51
32 7 56
32 8 43
32 9 42
32 10 56
32 11 48
32 12 4
32 13 17
32 14 33
32 15 3
32 16 68
32 17 35
32 18 52
32 19 60
32 20 76
32 21 69
32 22 4
32 23 43
32 24 15
32 25 41
32 26 35
32 27 68
32 28 16
32 29 76
32 30 10
32 31 57
33 0 10
33 1 70
33 2 20
33 3 60
33 4 67
33 5 69
33 6 28
33 7 48
33 8 42
33 9 75
33 10 57
33 11 66
33 12 61
33 13 73
33 14 26
33 15 11
33 16 48
33 17 52
33 18 45
33 19 67
33 20 30
33 21 4
33 22 59
33 23 25
33 24 78
33 25 10
33 26 17
33 27 19
33 28 77
33 29 29
33 30 67
33 31 76
33 32 63
34 0 48
34 1 53
34 2 73
34 3 76
34 4 68
34 5 36
34 6 28
34 7 69
34 8 63
34 9 22
34 10 31
34 11 57
34 12 6
34 13 19
34 14 35
34 15 58
34 16 32
34 17 9
34 18 41
34 19 34
34 20 15
34 21 43
34 22 63
34 23 74
34 24 20
34 25 76
34 26 42
34 27 32
34 28 59
34 29 28
34 30 19
34 31 4
34 32 31
34 33 65
35 0 58
35 1 38
35 2 60
35 3 1
35 4 25
35 5 6
35 6 71
35 7 34
35 8 33
35 9 74
35 10 64
35 11 76
35 12 20
35 13 34
35 14 51
35 15 76
35 16 37
35 17 28
35 18 21
35 19 11
35 20 66
35 21 30
35 22 66
35 23 58
35 24 17
35 25 8
35 26 37
35 27 56
35 28 64
35 29 10
35 30 26
35 31 26
35 32 75
35 33 60
35 34 15
36 0 6
36 1 15
36 2 21
36 3 70
36 4 46
36 5 49
36 6 6
36 7 75
36 8 34
36 9 6
36 10 73
36 11 18
36 12 70
36 13 29
36 14 2
36 15 49
36 16 52
36 17 25
36 18 10
36 19 64
36 20 44
36 21 11
36 22 21
36 23 75
36 24 43
36 25 61
36 26 14
36 27 49
36 28 35
36 29 79
36 30 53
36 31 27
36 32 43
36 33 33
36 34 77
36 35 52
37 0 41
37 1 61
37 2 29
37 3 39
37 4 60
37 5 1
37 6 24
37 7 26
37 8 63
37 9 22
37 10 70
37 11 27
37 12 39
37 13 47
37 14 34
37 15 46
37 16 18
37 17 67
37 18 50
37 19 71
37 20 4
37 21 44
37 22 22
37 23 2
37 24 73
37 25 33
37 26 49
37 27 26
37 28 3
37 29 46
37 30 5
37 31 57
37 32 22
37 33 7
37 34 39
37 35 1
37 36 76
38 0 11
38 1 45
38 2 70
38 3 43
38 4 4
38 5 59
38 6 57
38 7 22
38 8 67
38 9 63
38 10 32
38 11 18
38 12 3
38 13 25
38 14 64
38 15 70
38 16 20
38 17 20
38 18 21
38 19 75
38 20 20
38 21 32
38 22 53
38 23 74
38 24 64
38 25 55
38 26 50
38 27 4
38 28 50
38 29 41
38 30 3
38 31 78
38 32 77
38 33 31
38 34 76
38 35 71
38 36 60
38 37 64
39 0 45
39 1 60
39 2 38
39 3 76
39 4 60
39 5 55
39 6 1
39 7 62
39 8 27
39 9 1
39 10 8
39 11 50
39 12 30
39 13 3
39 14 34
39 15 7
39 16 49
39 17 7
39 18 14
39 19 12
39 20 33
39 21 7
39 22 57
39 23 60
39 24 37
39 25 47
39 26 60
39 27 8
39 28 15
39 29 29
39 30 3
39 31 42
39 32 58
39 33 56
39 34 48
39 35 60
39 36 61
39 37 19
39 38 77
